70
2 0 2
2 1 40
3 2 11
4 0 9
4 1 27
4 2 35
4 3 31
5 0 15
5 2 13
5 3 23
6 0 38
6 1 39
6 3 15
6 4 39
6 5 10
7 0 39
7 1 24
7 2 36
7 3 25
7 4 17
7 5 13
7 6 33
8 0 25
8 1 7
8 2 9
8 3 21
8 4 13
8 5 6
8 6 23
8 7 8
9 0 33
9 1 38
9 2 29
9 3 34
9 4 8
9 5 39
9 6 1
9 7 10
10 0 38
10 1 34
10 3 36
10 4 19
10 5 3
10 6 20
10 7 13
10 8 34
10 9 21
11 0 3
11 1 8
11 2 22
11 3 39
11 4 37
11 5 37
11 6 17
11 7 30
11 8 37
11 9 19
11 10 39
12 0 14
12 1 25
12 2 34
12 3 9
12 4 15
12 5 20
12 6 20
12 7 10
12 8 20
12 9 21
12 10 21
12 11 18
13 0 22
13 3 1
13 4 17
13 5 14
13 6 8
13 7 31
13 8 23
13 9 1
13 10 8
13 11 23
13 12 17
14 0 7
14 1 3
14 2 31
14 3 14
14 4 26
14 5 6
14 6 14
14 7 18
14 8 39
14 9 11
14 10 6
14 12 27
15 0 37
15 1 9
15 2 38
15 3 19
15 4 36
15 5 25
15 6 17
15 7 14
15 8 35
15 9 24
15 11 11
15 12 3
15 13 2
15 14 24
16 0 20
16 1 39
16 2 12
16 3 38
16 4 36
16 5 30
16 6 13
16 7 2
16 8 12
16 9 5
16 10 17
16 11 17
16 12 13
16 14 12
16 15 17
17 0 4
17 1 6
17 2 35
17 3 4
17 4 17
17 5 25
17 6 27
17 7 27
17 8 40
17 9 10
17 10 38
17 11 11
17 12 32
17 13 12
17 14 18
17 15 26
17 16 21
18 0 15
18 1 26
18 2 13
18 3 3
18 4 3
18 6 12
18 7 35
18 8 25
18 9 20
18 10 37
18 11 29
18 12 16
18 13 1
18 14 12
18 15 8
18 16 28
18 17 27
19 0 34
19 1 25
19 2 11
19 4 12
19 5 13
19 6 39
19 8 9
19 9 13
19 10 1
19 11 22
19 12 35
19 13 19
19 14 9
19 15 6
19 16 38
19 17 40
19 18 34
20 0 30
20 1 40
20 2 34
20 3 35
20 4 27
20 5 17
20 6 27
20 7 26
20 8 3
20 9 13
20 10 24
20 11 16
20 12 15
20 14 22
20 15 12
20 16 32
20 17 27
20 18 27
20 19 25
21 0 27
21 1 16
21 2 20
21 3 34
21 4 40
21 5 15
21 6 28
21 7 40
21 8 22
21 9 31
21 10 18
21 11 22
21 12 23
21 13 38
21 14 25
21 15 2
21 16 2
21 17 2
21 18 16
21 20 13
22 0 1
22 1 2
22 2 5
22 3 10
22 4 8
22 5 30
22 7 13
22 8 20
22 9 3
22 10 17
22 11 36
22 12 15
22 13 16
22 14 40
22 15 2
22 16 12
22 17 29
22 18 36
22 19 38
22 20 29
22 21 27
23 0 27
23 1 26
23 2 28
23 3 1
23 4 40
23 5 21
23 6 8
23 7 12
23 9 5
23 10 25
23 11 27
23 12 28
23 13 8
23 14 16
23 16 27
23 17 8
23 19 32
23 20 30
23 21 36
23 22 23
24 0 27
24 1 26
24 2 19
24 3 2
24 4 24
24 5 40
24 6 6
24 7 26
24 8 9
24 9 36
24 10 18
24 11 11
24 12 40
24 13 26
24 14 19
24 16 26
24 17 2
24 18 1
24 19 3
24 20 23
24 21 25
24 22 34
25 0 38
25 1 39
25 3 29
25 4 18
25 5 15
25 6 31
25 7 1
25 8 2
25 9 32
25 10 28
25 11 15
25 12 22
25 13 35
25 14 14
25 15 32
25 16 21
25 17 7
25 18 12
25 19 2
25 21 15
25 22 33
25 23 16
25 24 40
26 1 15
26 2 34
26 3 35
26 4 1
26 5 8
26 7 17
26 8 40
26 10 39
26 11 4
26 12 17
26 13 31
26 14 16
26 15 29
26 16 33
26 17 33
26 18 32
26 19 39
26 20 10
26 21 12
26 22 39
26 23 19
26 24 18
26 25 2
27 0 38
27 1 19
27 2 5
27 3 26
27 4 4
27 5 14
27 7 32
27 8 39
27 9 28
27 10 3
27 11 27
27 12 34
27 13 18
27 14 3
27 16 22
27 17 30
27 18 25
27 19 36
27 20 10
27 22 40
27 23 29
27 24 20
27 25 33
27 26 19
28 0 22
28 1 15
28 2 29
28 3 18
28 4 15
28 6 32
28 7 30
28 8 1
28 9 4
28 10 15
28 11 20
28 12 1
28 14 20
28 15 1
28 16 6
28 17 32
28 18 9
28 19 6
28 20 29
28 21 30
28 22 7
28 23 12
28 24 40
28 25 34
28 26 24
28 27 7
29 0 12
29 1 6
29 2 21
29 3 36
29 4 23
29 5 38
29 6 39
29 7 26
29 8 35
29 9 8
29 10 36
29 12 24
29 14 32
29 16 29
29 17 19
29 19 4
29 20 16
29 21 40
29 22 26
29 23 18
29 24 16
29 25 5
29 26 9
29 27 21
29 28 10
30 0 12
30 1 6
30 3 22
30 4 5
30 5 26
30 6 31
30 7 36
30 8 2
30 9 38
30 10 19
30 11 20
30 12 10
30 13 37
30 14 12
30 15 37
30 16 10
30 17 6
30 19 18
30 20 21
30 21 10
30 22 39
30 23 12
30 24 21
30 25 28
30 26 35
30 27 39
30 28 6
30 29 29
31 0 8
31 1 5
31 2 11
31 3 22
31 4 15
31 5 16
31 6 23
31 9 24
31 10 10
31 11 11
31 12 23
31 13 17
31 14 15
31 15 27
31 16 28
31 17 20
31 18 5
31 19 12
31 20 19
31 21 33
31 22 28
31 23 31
31 24 26
31 25 11
31 26 5
31 27 34
31 28 34
31 29 10
31 30 11
32 0 35
32 1 23
32 2 30
32 3 24
32 4 37
32 5 3
32 6 13
32 7 39
32 8 18
32 9 14
32 10 23
32 11 7
32 12 30
32 13 1
32 14 5
32 15 34
32 16 34
32 17 39
32 18 20
32 19 23
32 20 37
32 21 35
32 22 36
32 23 5
32 24 32
32 25 37
32 26 5
32 27 17
32 29 40
32 30 6
32 31 29
33 0 35
33 1 8
33 2 37
33 3 30
33 4 13
33 5 25
33 6 1
33 7 23
33 8 37
33 9 37
33 10 11
33 11 6
33 12 40
33 13 22
33 14 36
33 15 25
33 16 17
33 17 5
33 18 10
33 19 38
33 21 16
33 22 27
33 23 7
33 24 13
33 25 15
33 26 5
33 27 39
33 28 6
33 29 24
33 30 30
33 31 9
33 32 10
34 0 38
34 1 36
34 3 13
34 4 40
34 6 11
34 7 27
34 8 5
34 9 32
34 10 33
34 11 8
34 12 2
34 13 21
34 14 1
34 15 36
34 16 17
34 17 7
34 18 36
34 19 1
34 20 7
34 21 34
34 22 27
34 23 13
34 24 22
34 25 20
34 26 23
34 27 26
34 28 33
34 29 2
34 30 10
34 32 29
34 33 18
35 0 27
35 1 5
35 2 16
35 3 28
35 4 33
35 6 19
35 7 37
35 9 21
35 10 6
35 11 31
35 12 16
35 14 24
35 15 20
35 16 10
35 17 39
35 18 35
35 19 31
35 21 12
35 22 16
35 23 26
35 24 24
35 25 16
35 26 7
35 27 20
35 28 7
35 29 37
35 30 28
35 31 30
35 32 16
35 33 29
35 34 23
36 0 32
36 1 40
36 3 18
36 5 25
36 6 35
36 7 5
36 8 30
36 9 20
36 10 7
36 11 34
36 12 33
36 13 17
36 15 19
36 16 38
36 17 8
36 18 14
36 19 7
36 21 26
36 22 7
36 23 30
36 24 21
36 25 12
36 26 13
36 27 37
36 28 33
36 29 7
36 30 3
36 31 40
36 33 33
36 34 18
37 0 15
37 1 1
37 2 13
37 3 3
37 4 7
37 5 27
37 6 7
37 7 14
37 8 16
37 9 34
37 10 21
37 12 37
37 13 36
37 14 27
37 16 11
37 17 32
37 18 29
37 19 21
37 20 29
37 21 6
37 22 13
37 23 3
37 24 25
37 25 31
37 26 19
37 27 26
37 28 23
37 30 12
37 31 19
37 33 36
37 34 9
37 36 29
38 0 18
38 1 18
38 4 35
38 5 24
38 6 7
38 7 31
38 8 36
38 9 29
38 10 26
38 11 18
38 12 24
38 13 3
38 14 3
38 15 32
38 16 36
38 17 21
38 18 30
38 19 29
38 20 7
38 21 38
38 22 8
38 23 19
38 25 38
38 26 30
38 27 28
38 28 20
38 29 36
38 30 16
38 31 14
38 32 37
38 33 21
38 34 39
38 35 24
38 36 16
38 37 20
39 0 29
39 1 20
39 3 16
39 4 25
39 5 21
39 6 34
39 7 16
39 8 20
39 9 33
39 10 35
39 11 32
39 12 18
39 13 9
39 14 31
39 16 21
39 17 9
39 18 6
39 19 13
39 20 22
39 21 39
39 23 38
39 24 31
39 25 37
39 26 21
39 27 35
39 28 34
39 29 20
39 30 4
39 31 32
39 32 24
39 33 35
39 34 1
39 35 36
39 36 10
39 37 10
39 38 38
40 0 14
40 1 38
40 2 16
40 4 9
40 5 39
40 6 12
40 7 5
40 8 3
40 10 33
40 11 20
40 12 12
40 15 34
40 16 21
40 17 12
40 18 14
40 19 20
40 20 9
40 21 25
40 22 12
40 23 21
40 24 9
40 25 35
40 27 28
40 28 20
40 29 29
40 30 30
40 32 28
40 33 32
40 34 27
40 35 11
40 36 24
40 37 1
40 38 28
40 39 35
41 0 39
41 1 19
41 2 7
41 3 32
41 4 27
41 5 22
41 6 24
41 7 7
41 8 17
41 9 40
41 10 36
41 11 33
41 12 12
41 14 12
41 15 35
41 18 34
41 19 39
41 20 35
41 21 30
41 22 9
41 23 36
41 24 38
41 25 20
41 26 7
41 27 19
41 28 10
41 29 20
41 30 12
41 31 38
41 32 28
41 33 37
41 34 14
41 35 36
41 36 19
41 37 12
41 38 15
41 39 12
42 0 40
42 2 22
42 3 27
42 4 39
42 5 26
42 6 27
42 7 18
42 8 7
42 9 38
42 10 15
42 11 30
42 12 38
42 13 14
42 14 17
42 15 17
42 16 39
42 17 1
42 18 40
42 19 8
42 20 2
42 21 16
42 22 39
42 23 13
42 25 27
42 26 16
42 29 2
42 30 3
42 31 32
42 33 9
42 34 23
42 35 13
42 36 18
42 37 30
42 38 35
42 39 17
42 40 40
42 41 35
43 0 10
43 1 9
43 2 36
43 3 8
43 4 22
43 5 24
43 6 9
43 7 21
43 9 15
43 10 4
43 11 39
43 12 34
43 13 24
43 14 19
43 15 11
43 16 33
43 17 34
43 18 32
43 19 31
43 20 27
43 21 36
43 22 4
43 23 7
43 26 16
43 27 1
43 28 11
43 29 33
43 30 17
43 32 22
43 33 5
43 34 11
43 35 10
43 36 13
43 37 10
43 38 37
43 40 30
43 41 15
43 42 18
44 0 5
44 1 6
44 2 20
44 3 24
44 4 3
44 5 7
44 6 11
44 7 34
44 8 33
44 9 32
44 10 9
44 11 15
44 12 23
44 13 37
44 14 7
44 15 28
44 17 32
44 23 12
44 24 6
44 25 29
44 26 30
44 27 23
44 28 13
44 29 14
44 30 9
44 31 5
44 32 33
44 33 9
44 35 1
44 36 19
44 37 26
44 38 20
44 39 29
44 40 34
44 41 2
44 43 38
45 1 15
45 2 5
45 3 28
45 4 6
45 5 29
45 7 36
45 8 40
45 10 19
45 11 35
45 13 21
45 14 22
45 15 2
45 16 23
45 17 27
45 20 30
45 21 20
45 23 16
45 24 32
45 26 9
45 27 8
45 28 4
45 29 14
45 30 23
45 32 13
45 33 8
45 34 36
45 35 18
45 36 15
45 37 23
45 38 30
45 39 32
45 40 6
45 42 7
45 43 35
45 44 21
46 0 21
46 1 25
46 2 12
46 3 33
46 4 22
46 5 40
46 6 5
46 7 16
46 8 20
46 9 20
46 10 33
46 11 20
46 12 7
46 13 26
46 14 27
46 15 17
46 16 40
46 17 21
46 19 11
46 20 37
46 21 10
46 22 12
46 23 13
46 24 13
46 25 31
46 26 25
46 27 40
46 28 25
46 29 17
46 30 34
46 31 40
46 32 18
46 33 11
46 34 10
46 35 3
46 36 9
46 37 17
46 40 29
46 41 33
46 42 19
46 44 16
46 45 17
47 0 26
47 1 3
47 2 6
47 3 6
47 4 6
47 5 38
47 6 13
47 7 29
47 8 27
47 9 16
47 10 5
47 11 10
47 12 38
47 13 37
47 14 25
47 17 21
47 18 7
47 19 24
47 20 39
47 21 40
47 22 29
47 23 12
47 24 1
47 25 14
47 27 29
47 28 13
47 29 37
47 30 24
47 31 15
47 32 13
47 33 21
47 34 21
47 35 19
47 36 3
47 38 24
47 39 5
47 40 26
47 42 14
47 43 19
47 44 13
47 45 2
47 46 17
48 0 5
48 1 17
48 2 40
48 3 7
48 4 10
48 7 29
48 8 6
48 9 40
48 10 1
48 11 23
48 12 30
48 13 34
48 14 4
48 15 27
48 16 39
48 17 39
48 18 38
48 19 8
48 20 5
48 21 4
48 22 13
48 23 5
48 24 7
48 26 4
48 27 6
48 29 34
48 30 3
48 31 17
48 32 4
48 33 16
48 34 7
48 35 25
48 37 35
48 38 8
48 39 8
48 40 15
48 41 18
48 42 12
48 43 38
48 44 4
48 45 12
48 47 22
49 0 7
49 1 39
49 2 14
49 3 7
49 4 31
49 5 9
49 6 23
49 7 21
49 8 29
49 9 5
49 10 19
49 12 18
49 13 5
49 14 24
49 15 27
49 16 10
49 17 17
49 18 10
49 19 34
49 20 8
49 21 11
49 22 4
49 23 24
49 25 5
49 26 35
49 27 33
49 28 31
49 29 10
49 30 18
49 31 6
49 32 15
49 33 17
49 34 15
49 35 4
49 36 17
49 37 5
49 38 31
49 39 17
49 40 13
49 41 24
49 42 34
49 43 26
49 45 24
49 47 32
49 48 27
50 0 39
50 1 8
50 2 37
50 3 2
50 4 32
50 5 4
50 6 28
50 7 14
50 8 26
50 9 33
50 10 10
50 11 20
50 12 13
50 13 38
50 15 39
50 17 4
50 18 5
50 21 12
50 22 20
50 23 33
50 24 33
50 25 29
50 27 30
50 28 18
50 29 28
50 31 35
50 33 29
50 34 22
50 35 19
50 36 21
50 37 29
50 38 11
50 39 2
50 40 27
50 42 31
50 44 6
50 45 13
50 46 10
50 47 2
50 48 9
50 49 40
51 0 38
51 1 21
51 2 5
51 3 5
51 4 2
51 5 28
51 6 21
51 7 5
51 8 31
51 9 21
51 10 15
51 11 39
51 12 25
51 13 21
51 14 11
51 15 37
51 16 1
51 17 40
51 18 8
51 19 17
51 21 15
51 22 18
51 23 26
51 24 9
51 25 30
51 26 40
51 27 30
51 28 11
51 29 11
51 30 21
51 31 34
51 32 26
51 33 23
51 35 11
51 37 30
51 38 12
51 39 5
51 40 17
51 41 16
51 42 7
51 43 27
51 44 9
51 45 40
51 47 12
51 48 16
51 50 34
52 0 10
52 1 2
52 2 21
52 3 38
52 4 11
52 5 26
52 6 35
52 7 9
52 8 9
52 9 3
52 10 7
52 11 28
52 12 10
52 13 2
52 15 15
52 16 12
52 17 2
52 18 27
52 19 13
52 20 7
52 21 25
52 23 31
52 24 30
52 26 34
52 27 11
52 29 28
52 30 32
52 31 1
52 32 16
52 33 23
52 34 31
52 35 17
52 36 15
52 37 6
52 38 6
52 39 14
52 40 10
52 41 34
52 42 39
52 43 37
52 44 6
52 46 23
52 47 22
52 48 9
52 49 23
52 50 29
52 51 24
53 0 31
53 1 36
53 2 20
53 3 8
53 4 11
53 5 10
53 6 25
53 7 38
53 9 25
53 10 32
53 11 16
53 12 30
53 13 33
53 14 38
53 15 36
53 18 3
53 19 39
53 22 30
53 23 29
53 24 37
53 25 32
53 27 17
53 29 22
53 31 9
53 32 28
53 33 13
53 34 10
53 35 12
53 36 24
53 37 16
53 38 18
53 39 21
53 40 20
53 41 35
53 42 12
53 43 18
53 44 17
53 45 11
53 46 26
53 47 9
53 48 30
53 49 1
53 50 34
53 51 26
53 52 25
54 0 33
54 1 14
54 2 13
54 3 35
54 4 3
54 5 6
54 6 7
54 7 2
54 8 20
54 9 2
54 10 38
54 11 23
54 12 5
54 13 28
54 14 40
54 15 17
54 16 13
54 17 3
54 18 8
54 19 27
54 21 15
54 22 25
54 23 40
54 24 15
54 25 20
54 26 3
54 27 2
54 29 33
54 30 29
54 31 40
54 32 28
54 33 32
54 34 11
54 35 11
54 36 33
54 37 22
54 38 28
54 39 17
54 40 15
54 41 35
54 42 18
54 43 27
54 44 28
54 45 37
54 46 32
54 47 37
54 48 18
54 49 2
54 50 5
54 51 13
54 52 18
54 53 25
55 0 25
55 1 14
55 3 31
55 4 40
55 5 34
55 6 8
55 7 37
55 8 2
55 9 9
55 11 1
55 12 32
55 13 28
55 14 36
55 15 23
55 16 21
55 17 8
55 18 30
55 19 24
55 20 11
55 21 32
55 22 1
55 23 14
55 25 20
55 27 28
55 28 19
55 29 8
55 30 33
55 31 22
55 32 20
55 33 34
55 34 40
55 35 34
55 36 22
55 37 34
55 38 37
55 39 17
55 40 36
55 41 6
55 42 38
55 43 37
55 44 7
55 45 16
55 46 36
55 47 20
55 48 2
55 49 26
55 50 4
55 51 8
55 52 36
55 53 31
55 54 13
56 1 29
56 2 16
56 3 21
56 4 24
56 5 10
56 6 27
56 7 19
56 8 17
56 9 24
56 10 15
56 11 17
56 12 6
56 13 8
56 14 39
56 15 33
56 16 22
56 17 35
56 18 6
56 19 3
56 20 30
56 21 10
56 22 17
56 23 16
56 24 17
56 25 30
56 26 37
56 27 23
56 28 38
56 29 37
56 30 13
56 31 15
56 32 19
56 33 28
56 35 1
56 36 12
56 37 31
56 38 21
56 39 25
56 40 31
56 41 5
56 42 15
56 43 9
56 44 4
56 45 6
56 46 1
56 47 20
56 48 4
56 49 18
56 50 13
56 51 18
56 52 26
56 53 23
56 54 26
56 55 11
57 0 29
57 1 13
57 2 30
57 3 6
57 4 16
57 5 19
57 6 38
57 7 29
57 8 6
57 9 16
57 10 5
57 11 2
57 12 38
57 13 7
57 14 37
57 15 7
57 16 13
57 17 13
57 18 26
57 19 11
57 20 14
57 21 21
57 22 35
57 23 31
57 24 38
57 25 36
57 26 11
57 27 6
57 29 8
57 30 36
57 31 13
57 32 28
57 33 27
57 35 24
57 36 22
57 37 9
57 38 15
57 39 15
57 40 10
57 41 3
57 42 39
57 43 26
57 44 11
57 45 28
57 46 38
57 47 15
57 48 38
57 49 15
57 50 28
57 51 18
57 52 26
57 53 19
57 54 3
57 55 34
57 56 16
58 0 34
58 1 1
58 2 26
58 3 6
58 5 3
58 6 34
58 7 35
58 8 13
58 9 36
58 11 30
58 12 21
58 13 21
58 14 38
58 15 25
58 16 13
58 17 33
58 18 7
58 19 17
58 20 28
58 21 24
58 22 17
58 23 17
58 24 23
58 25 38
58 26 12
58 27 19
58 28 6
58 29 33
58 30 10
58 31 16
58 32 22
58 33 30
58 34 24
58 35 39
58 36 15
58 37 2
58 38 30
58 39 15
58 40 28
58 41 4
58 42 12
58 43 33
58 44 18
58 45 7
58 46 3
58 47 2
58 48 34
58 49 26
58 50 13
58 51 30
58 52 35
58 53 7
58 54 17
58 55 5
58 56 28
58 57 18
59 0 34
59 1 18
59 2 21
59 3 9
59 4 18
59 5 22
59 6 9
59 7 11
59 8 2
59 9 15
59 10 34
59 11 27
59 12 5
59 13 38
59 14 39
59 15 33
59 16 32
59 17 30
59 19 39
59 20 5
59 21 23
59 22 24
59 23 35
59 24 37
59 25 28
59 26 14
59 27 31
59 28 5
59 29 22
59 30 29
59 31 37
59 32 19
59 33 13
59 34 21
59 35 1
59 36 21
59 37 3
59 38 4
59 39 27
59 40 7
59 41 20
59 42 15
59 43 24
59 44 20
59 45 3
59 46 6
59 47 23
59 48 7
59 50 16
59 51 39
59 52 36
59 53 39
59 54 36
59 56 3
59 57 18
59 58 9
60 0 36
60 1 25
60 2 2
60 3 30
60 4 30
60 5 29
60 6 21
60 7 35
60 8 11
60 9 36
60 10 39
60 11 14
60 12 12
60 13 9
60 14 11
60 15 14
60 16 39
60 17 2
60 18 29
60 19 29
60 20 9
60 22 11
60 23 13
60 24 9
60 25 4
60 26 23
60 28 1
60 29 5
60 30 8
60 31 16
60 32 13
60 33 6
60 34 16
60 35 14
60 36 12
60 37 30
60 38 28
60 39 5
60 40 10
60 41 10
60 42 36
60 43 16
60 44 25
60 45 35
60 46 39
60 47 3
60 48 27
60 49 7
60 50 18
60 51 12
60 52 2
60 53 10
60 54 5
60 55 40
60 56 12
60 57 10
60 58 33
60 59 14
61 0 33
61 1 11
61 2 12
61 3 19
61 5 38
61 6 34
61 7 37
61 8 3
61 9 1
61 10 29
61 11 28
61 12 34
61 13 4
61 14 38
61 15 5
61 16 20
61 17 31
61 18 19
61 19 37
61 20 37
61 21 10
61 22 10
61 24 6
61 25 23
61 26 12
61 27 34
61 28 24
61 29 36
61 30 8
61 31 15
61 32 25
61 33 9
61 34 5
61 36 8
61 37 31
61 38 19
61 39 32
61 40 12
61 41 22
61 42 23
61 43 18
61 44 6
61 45 17
61 46 40
61 47 26
61 48 1
61 50 35
61 51 20
61 52 12
61 53 17
61 54 24
61 55 13
61 56 24
61 57 33
61 58 24
61 59 25
61 60 26
62 0 26
62 1 13
62 2 18
62 3 6
62 5 34
62 6 3
62 7 30
62 8 37
62 10 29
62 11 10
62 12 37
62 13 18
62 14 3
62 15 31
62 16 26
62 17 28
62 18 12
62 19 22
62 21 9
62 22 28
62 23 29
62 24 19
62 25 27
62 26 7
62 27 18
62 28 35
62 29 37
62 30 19
62 31 6
62 32 36
62 33 35
62 34 5
62 35 28
62 36 10
62 37 36
62 38 17
62 40 37
62 41 22
62 42 22
62 43 34
62 44 13
62 45 26
62 47 3
62 48 9
62 49 19
62 50 9
62 51 18
62 52 14
62 53 32
62 54 34
62 55 36
62 56 28
62 57 27
62 58 1
62 59 15
62 60 12
62 61 1
63 0 19
63 1 19
63 3 39
63 4 35
63 5 2
63 6 17
63 7 19
63 8 20
63 9 11
63 13 25
63 14 33
63 15 13
63 16 28
63 17 22
63 18 38
63 19 34
63 20 5
63 21 13
63 22 27
63 23 24
63 24 31
63 25 12
63 27 28
63 28 34
63 29 37
63 30 11
63 31 19
63 32 26
63 33 4
63 34 21
63 35 26
63 36 27
63 38 32
63 39 9
63 42 32
63 43 22
63 44 21
63 45 7
63 46 37
63 47 7
63 48 20
63 49 10
63 51 26
63 52 33
63 53 35
63 54 28
63 55 17
63 56 26
63 58 16
63 59 15
63 60 32
63 61 27
63 62 33
64 0 6
64 1 22
64 2 33
64 3 38
64 4 25
64 7 13
64 8 7
64 9 6
64 10 21
64 11 29
64 12 17
64 13 8
64 14 28
64 16 19
64 17 14
64 18 30
64 19 18
64 20 9
64 21 4
64 22 21
64 23 23
64 24 14
64 25 16
64 27 35
64 29 22
64 30 4
64 31 8
64 32 36
64 33 26
64 35 14
64 36 11
64 38 14
64 39 27
64 40 38
64 41 9
64 42 36
64 43 26
64 44 25
64 45 3
64 46 3
64 47 9
64 48 12
64 49 25
64 50 2
64 51 15
64 52 4
64 53 22
64 54 9
64 55 7
64 56 30
64 57 32
64 59 24
64 60 5
64 61 17
64 63 28
65 0 26
65 1 39
65 2 39
65 3 37
65 5 29
65 6 19
65 7 16
65 8 6
65 9 7
65 10 40
65 11 9
65 12 39
65 13 23
65 14 9
65 15 39
65 16 37
65 17 20
65 18 13
65 19 25
65 20 22
65 21 9
65 22 21
65 23 35
65 24 15
65 25 16
65 26 40
65 27 13
65 28 32
65 30 16
65 31 3
65 32 14
65 33 9
65 34 29
65 35 26
65 36 4
65 37 9
65 38 33
65 39 17
65 40 9
65 41 2
65 42 27
65 43 13
65 45 26
65 46 12
65 47 1
65 48 35
65 49 21
65 50 27
65 51 26
65 52 22
65 53 22
65 54 35
65 55 10
65 56 18
65 57 28
65 58 39
65 59 20
65 60 33
65 61 40
65 62 39
65 63 10
65 64 8
66 0 23
66 1 31
66 2 11
66 3 34
66 4 8
66 5 2
66 6 18
66 7 23
66 8 40
66 9 10
66 10 9
66 11 18
66 12 18
66 13 36
66 14 17
66 15 32
66 16 29
66 17 27
66 18 36
66 19 25
66 20 32
66 21 2
66 22 8
66 23 7
66 24 7
66 25 25
66 26 27
66 29 6
66 31 23
66 32 33
66 33 32
66 34 35
66 35 17
66 36 31
66 37 39
66 38 29
66 39 3
66 40 31
66 41 40
66 42 30
66 43 1
66 44 13
66 45 28
66 46 25
66 48 6
66 49 15
66 50 22
66 51 21
66 52 8
66 53 16
66 55 19
66 56 16
66 57 9
66 58 40
66 59 16
66 60 26
66 61 25
66 62 33
66 64 4
66 65 5
67 0 25
67 1 21
67 2 35
67 3 8
67 4 39
67 5 3
67 6 5
67 8 2
67 9 12
67 10 37
67 11 12
67 12 19
67 13 20
67 14 23
67 15 6
67 17 12
67 18 40
67 19 17
67 20 19
67 22 11
67 23 14
67 24 28
67 25 31
67 26 30
67 27 26
67 28 30
67 29 34
67 30 16
67 31 3
67 33 2
67 34 19
67 35 36
67 36 35
67 37 11
67 38 1
67 39 27
67 40 6
67 41 13
67 42 7
67 43 15
67 44 33
67 45 10
67 46 19
67 48 15
67 49 3
67 50 24
67 51 28
67 52 23
67 53 7
67 54 34
67 55 5
67 56 15
67 57 28
67 58 17
67 59 19
67 61 12
67 62 12
67 63 32
67 64 29
67 65 6
67 66 11
68 0 13
68 1 32
68 2 11
68 3 36
68 4 26
68 5 31
68 6 13
68 7 13
68 8 22
68 9 38
68 10 6
68 11 5
68 12 12
68 14 32
68 16 16
68 17 34
68 18 22
68 19 33
68 20 15
68 21 7
68 22 15
68 23 28
68 24 24
68 25 5
68 26 3
68 27 6
68 28 6
68 30 11
68 31 2
68 32 4
68 33 4
68 34 39
68 35 10
68 36 32
68 37 8
68 38 14
68 39 9
68 40 30
68 41 2
68 42 25
68 43 18
68 44 17
68 46 30
68 47 33
68 48 20
68 49 38
68 50 29
68 51 36
68 52 14
68 54 16
68 55 34
68 56 27
68 57 36
68 58 8
68 59 6
68 60 27
68 62 5
68 63 6
68 64 32
68 65 25
68 66 27
68 67 19
69 0 7
69 1 20
69 2 9
69 3 36
69 4 11
69 6 38
69 8 27
69 9 7
69 10 38
69 11 38
69 12 30
69 13 38
69 14 21
69 15 21
69 16 34
69 17 30
69 18 11
69 19 6
69 20 13
69 21 40
69 22 28
69 23 20
69 24 27
69 25 24
69 26 3
69 27 29
69 28 30
69 29 5
69 31 28
69 32 40
69 33 21
69 34 37
69 35 37
69 36 16
69 38 39
69 39 27
69 40 34
69 41 25
69 42 11
69 43 3
69 44 30
69 45 30
69 46 5
69 47 22
69 48 8
69 49 31
69 50 12
69 51 14
69 52 31
69 53 35
69 54 1
69 55 33
69 56 26
69 57 30
69 58 27
69 59 29
69 60 13
69 61 9
69 62 27
69 63 29
69 64 40
69 65 11
69 66 33
69 67 9
